p cnf 150 200
7 11 19 51 0
7 11 19 -51 0
7 -11 27 52 0
7 -11 27 -52 0
7 16 -27 53 0
7 16 -27 -53 0
-11 25 48 54 0
-11 25 48 -54 0
-16 17 -48 55 0
-16 17 -48 -55 0
-17 25 -48 56 0
-17 25 -48 -56 0
-16 -25 -27 57 0
-16 -25 -27 -57 0
19 36 49 58 0
19 36 49 -58 0
-7 -36 49 59 0
-7 -36 49 -59 0
-7 19 -49 60 0
-7 19 -49 -60 0
4 12 44 61 0
4 12 44 -61 0
4 -12 44 62 0
4 -12 44 -62 0
1 -44 47 63 0
1 -44 47 -63 0
-1 4 47 64 0
-1 4 47 -64 0
20 34 48 65 0
20 34 48 -65 0
-19 20 34 66 0
-19 20 34 -66 0
24 -34 -44 67 0
24 -34 -44 -67 0
-24 -34 -44 68 0
-24 -34 -44 -68 0
-24 -32 41 69 0
-24 -32 41 -69 0
-34 -41 -47 70 0
-34 -41 -47 -70 0
-4 -19 20 71 0
-4 -19 20 -71 0
30 39 41 72 0
30 39 41 -72 0
-30 39 50 73 0
-30 39 50 -73 0
-20 -30 -50 74 0
-20 -30 -50 -74 0
-20 -39 41 75 0
-20 -39 41 -75 0
-19 32 -41 76 0
-19 32 -41 -76 0
-20 -32 -41 77 0
-20 -32 -41 -77 0
1 18 -35 78 0
1 18 -35 -78 0
-14 18 -35 79 0
-14 18 -35 -79 0
-14 -18 27 80 0
-14 -18 27 -80 0
-1 25 -46 81 0
-1 25 -46 -81 0
-4 16 -47 82 0
-4 16 -47 -82 0
11 16 -25 83 0
11 16 -25 -83 0
-4 11 -25 84 0
-4 11 -25 -84 0
-27 -35 -47 85 0
-27 -35 -47 -85 0
15 31 40 86 0
15 31 40 -86 0
10 39 -49 87 0
10 39 -49 -87 0
-8 -10 21 88 0
-8 -10 21 -88 0
-21 -26 30 89 0
-21 -26 30 -89 0
6 -11 29 90 0
6 -11 29 -90 0
6 31 50 91 0
6 31 50 -91 0
45 49 -50 92 0
45 49 -50 -92 0
31 -45 -50 93 0
31 -45 -50 -93 0
21 30 33 94 0
21 30 33 -94 0
2 37 -49 95 0
2 37 -49 -95 0
-2 17 37 96 0
-2 17 37 -96 0
-8 14 32 97 0
-8 14 32 -97 0
-14 -15 32 98 0
-14 -15 32 -98 0
-1 37 47 99 0
-1 37 47 -99 0
6 -38 45 100 0
6 -38 45 -100 0
-21 -38 45 101 0
-21 -38 45 -101 0
-13 -18 -42 102 0
-13 -18 -42 -102 0
2 -6 22 103 0
2 -6 22 -103 0
-2 -6 22 104 0
-2 -6 22 -104 0
9 -28 -36 105 0
9 -28 -36 -105 0
8 29 -39 106 0
8 29 -39 -106 0
-8 -38 -39 107 0
-8 -38 -39 -107 0
-12 17 38 108 0
-12 17 38 -108 0
1 -15 -26 109 0
1 -15 -26 -109 0
-7 -15 -26 110 0
-7 -15 -26 -110 0
-9 36 42 111 0
-9 36 42 -111 0
12 -16 21 112 0
12 -16 21 -112 0
-10 -23 -46 113 0
-10 -23 -46 -113 0
-9 -29 34 114 0
-9 -29 34 -114 0
-9 -21 42 115 0
-9 -21 42 -115 0
-12 -23 38 116 0
-12 -23 38 -116 0
-30 38 40 117 0
-30 38 40 -117 0
18 23 33 118 0
18 23 33 -118 0
-6 15 33 119 0
-6 15 33 -119 0
9 27 -43 120 0
9 27 -43 -120 0
22 40 -48 121 0
22 40 -48 -121 0
8 -22 26 122 0
8 -22 26 -122 0
-5 -33 -36 123 0
-5 -33 -36 -123 0
2 -33 46 124 0
2 -33 46 -124 0
5 10 -42 125 0
5 10 -42 -125 0
14 -29 -31 126 0
14 -29 -31 -126 0
12 -23 26 127 0
12 -23 26 -127 0
8 35 36 128 0
8 35 36 -128 0
-10 -17 -18 129 0
-10 -17 -18 -129 0
10 -22 -28 130 0
10 -22 -28 -130 0
15 -17 -43 131 0
15 -17 -43 -131 0
23 -29 -37 132 0
23 -29 -37 -132 0
13 -33 35 133 0
13 -33 35 -133 0
-2 23 42 134 0
-2 23 42 -134 0
9 43 46 135 0
9 43 46 -135 0
5 -24 -45 136 0
5 -24 -45 -136 0
-5 43 46 137 0
-5 43 46 -137 0
-3 -13 -40 138 0
-3 -13 -40 -138 0
3 -28 -42 139 0
3 -28 -42 -139 0
24 -31 43 140 0
24 -31 43 -140 0
14 -22 -32 141 0
14 -22 -32 -141 0
3 24 26 142 0
3 24 26 -142 0
-13 -43 44 143 0
-13 -43 44 -143 0
-3 -31 -40 144 0
-3 -31 -40 -144 0
-5 -40 50 145 0
-5 -40 50 -145 0
35 -37 -45 146 0
35 -37 -45 -146 0
-3 5 28 147 0
-3 5 28 -147 0
13 28 -46 148 0
13 28 -46 -148 0
3 28 -37 149 0
3 28 -37 -149 0
13 29 48 150 0
13 29 48 -150 0

